WARNING: for repeatability, setting FPU to use double precision
============================[ Problem Statistics ]=============================
|                                                                             |
|  Number of variables:           100                                         |
|  Number of clauses:             449                                         |
|  Parse time:                   0.00 s                                       |
|  Eliminated clauses:           0.00 Mb                                      |
|  Simplification time:          0.00 s                                       |
|                                                                             |
============================[ Search Statistics ]==============================
| Conflicts |          ORIGINAL         |          LEARNT          | Progress |
|           |    Vars  Clauses Literals |    Limit  Clauses Lit/Cl |          |
===============================================================================
|       100 |      99      448     1352 |      164      100      7 |  0.010 % |
|       250 |      98      432     1304 |      180      132      7 |  1.010 % |
|       475 |      94      387     1168 |      198       90      6 |  5.010 % |
===============================================================================
restarts              : 4
conflicts             : 495            (255286 /sec)
decisions             : 608            (0.00 % random) (313564 /sec)
propagations          : 11705          (6036617 /sec)
conflict literals     : 2944           (20.80 % deleted)
Memory used           : 13.00 MB
CPU time              : 0.001939 s

SATISFIABLE
